NAME : 60_5_06.63045.tour
COMMENT : Cost = 0_63045
COMMENT : Found by LKH [Keld Helsgaun] Thu Sep 14 11:13:34 2017
TYPE : TOUR
DIMENSION : 65
TOUR_SECTION
1
60
59
58
57
29
18
31
61
27
25
30
26
45
6
46
47
51
65
15
8
13
53
32
34
33
19
21
20
50
48
22
36
37
35
28
24
42
40
41
64
14
62
56
44
55
52
49
54
23
4
38
43
3
10
7
5
11
63
9
2
17
12
39
16
-1
EOF
